
Gurobi 6.5.1 (linux64) logging started Tue Apr 12 00:42:01 2016


Gurobi 6.5.1 (linux64) logging started Tue Apr 12 00:42:16 2016


Gurobi 6.5.1 (linux64) logging started Tue Apr 12 00:42:34 2016


Gurobi 6.5.1 (linux64) logging started Tue Apr 12 00:59:12 2016


Gurobi 6.5.1 (linux64) logging started Tue Apr 12 00:59:59 2016


Gurobi 6.5.1 (linux64) logging started Tue Apr 12 01:00:47 2016


Gurobi 6.5.1 (linux64) logging started Tue Apr 12 01:02:54 2016


Gurobi 6.5.1 (linux64) logging started Tue Apr 12 01:03:16 2016


Gurobi 6.5.1 (linux64) logging started Tue Apr 12 01:04:11 2016


Gurobi 6.5.1 (linux64) logging started Tue Apr 12 01:05:01 2016


Gurobi 6.5.1 (linux64) logging started Tue Apr 12 01:08:02 2016


Gurobi 6.5.1 (linux64) logging started Tue Apr 12 01:08:23 2016


Gurobi 6.5.1 (linux64) logging started Tue Apr 12 01:08:51 2016


Gurobi 6.5.1 (linux64) logging started Tue Apr 12 01:09:44 2016


Gurobi 6.5.1 (linux64) logging started Tue Apr 12 01:14:20 2016


Gurobi 6.5.1 (linux64) logging started Tue Apr 12 01:14:38 2016


Gurobi 6.5.1 (linux64) logging started Tue Apr 12 01:22:50 2016


Gurobi 6.5.1 (linux64) logging started Tue Apr 12 01:22:55 2016


Gurobi 6.5.1 (linux64) logging started Tue Apr 12 01:23:11 2016


Gurobi 6.5.1 (linux64) logging started Tue Apr 12 01:23:45 2016


Gurobi 6.5.1 (linux64) logging started Tue Apr 12 01:25:08 2016


Gurobi 6.5.1 (linux64) logging started Tue Apr 12 01:47:02 2016


Gurobi 6.5.1 (linux64) logging started Tue Apr 12 01:48:05 2016


Gurobi 6.5.1 (linux64) logging started Tue Apr 12 01:49:37 2016


Gurobi 6.5.1 (linux64) logging started Tue Apr 12 01:50:05 2016


Gurobi 6.5.1 (linux64) logging started Tue Apr 12 01:54:19 2016


Gurobi 6.5.1 (linux64) logging started Tue Apr 12 01:59:25 2016


Gurobi 6.5.1 (linux64) logging started Tue Apr 12 02:00:01 2016


Gurobi 6.5.1 (linux64) logging started Tue Apr 12 02:03:30 2016


Gurobi 6.5.1 (linux64) logging started Tue Apr 12 02:04:25 2016


Gurobi 6.5.1 (linux64) logging started Tue Apr 12 02:05:14 2016


Gurobi 6.5.1 (linux64) logging started Tue Apr 12 02:05:32 2016


Gurobi 6.5.1 (linux64) logging started Tue Apr 12 02:07:11 2016


Gurobi 6.5.1 (linux64) logging started Tue Apr 12 02:07:40 2016


Gurobi 6.5.1 (linux64) logging started Tue Apr 12 02:13:08 2016


Gurobi 6.5.1 (linux64) logging started Tue Apr 12 02:13:32 2016


Gurobi 6.5.1 (linux64) logging started Tue Apr 12 02:13:54 2016


Gurobi 6.5.1 (linux64) logging started Tue Apr 12 02:14:30 2016


Gurobi 6.5.1 (linux64) logging started Tue Apr 12 11:54:15 2016


Gurobi 6.5.1 (linux64) logging started Tue Apr 12 11:54:49 2016


Gurobi 6.5.1 (linux64) logging started Tue Apr 12 11:57:04 2016


Gurobi 6.5.1 (linux64) logging started Tue Apr 12 11:57:37 2016


Gurobi 6.5.1 (linux64) logging started Tue Apr 12 12:00:42 2016


Gurobi 6.5.1 (linux64) logging started Tue Apr 12 12:01:21 2016


Gurobi 6.5.1 (linux64) logging started Tue Apr 12 12:30:26 2016


Gurobi 6.5.1 (linux64) logging started Tue Apr 12 16:01:27 2016


Gurobi 6.5.1 (linux64) logging started Tue Apr 12 19:06:06 2016


Gurobi 6.5.1 (linux64) logging started Tue Apr 12 19:08:41 2016


Gurobi 6.5.1 (linux64) logging started Tue Apr 12 19:14:04 2016


Gurobi 6.5.1 (linux64) logging started Tue Apr 12 19:17:57 2016


Gurobi 6.5.1 (linux64) logging started Tue Apr 12 19:18:08 2016


Gurobi 6.5.1 (linux64) logging started Tue Apr 12 19:19:30 2016


Gurobi 6.5.1 (linux64) logging started Wed Apr 13 23:06:23 2016


Gurobi 6.5.1 (linux64) logging started Wed Apr 13 23:06:37 2016


Gurobi 6.5.1 (linux64) logging started Wed Apr 13 23:08:07 2016


Gurobi 6.5.1 (linux64) logging started Wed Apr 13 23:08:12 2016


Gurobi 6.5.1 (linux64) logging started Wed Apr 13 23:08:27 2016


Gurobi 6.5.1 (linux64) logging started Wed Apr 13 23:21:09 2016


Gurobi 6.5.1 (linux64) logging started Wed Apr 13 23:33:41 2016


Gurobi 6.5.1 (linux64) logging started Wed Apr 13 23:34:40 2016


Gurobi 6.5.1 (linux64) logging started Thu Apr 14 00:22:02 2016


Gurobi 6.5.1 (linux64) logging started Thu Apr 14 00:47:14 2016


Gurobi 6.5.1 (linux64) logging started Thu Apr 14 00:49:55 2016


Gurobi 6.5.1 (linux64) logging started Thu Apr 14 01:02:29 2016


Gurobi 6.5.1 (linux64) logging started Thu Apr 14 01:05:03 2016


Gurobi 6.5.1 (linux64) logging started Thu Apr 14 01:13:22 2016


Gurobi 6.5.1 (linux64) logging started Thu Apr 14 12:08:44 2016


Gurobi 6.5.1 (linux64) logging started Thu Apr 14 12:10:08 2016


Gurobi 6.5.1 (linux64) logging started Thu Apr 14 12:11:33 2016


Gurobi 6.5.1 (linux64) logging started Thu Apr 14 12:12:23 2016


Gurobi 6.5.1 (linux64) logging started Thu Apr 14 12:14:20 2016


Gurobi 6.5.1 (linux64) logging started Thu Apr 14 12:16:12 2016


Gurobi 6.5.1 (linux64) logging started Thu Apr 14 12:20:53 2016


Gurobi 6.5.1 (linux64) logging started Thu Apr 14 12:23:22 2016

